n = 10
Q1 = [0 22 19 9 32 23 40 40 36 30; 0 0 24 5 31 22 35 29 27 6; 0 0 0 16 38 42 39 13 12 18; 0 0 0 0 7 6 39 47 20 34; 0 0 0 0 0 44 16 46 42 46; 0 0 0 0 0 0 26 38 27 26; 0 0 0 0 0 0 0 44 37 34; 0 0 0 0 0 0 0 0 5 45; 0 0 0 0 0 0 0 0 0 12; 0 0 0 0 0 0 0 0 0 0]
Q2 = [0.0 33.0 28.0 38.0 3.0 29.0 0.0 0.0 6.0 15.0; 0.0 0.0 3.0 44.0 4.0 31.0 0.0 14.0 20.0 44.0; 0.0 0.0 0.0 38.0 3.0 0.0 2.0 39.0 43.0 45.0; 0.0 0.0 0.0 0.0 47.0 46.0 3.0 0.0 41.0 0.0; 0.0 0.0 0.0 0.0 0.0 0.0 41.0 1.0 2.0 0.0; 0.0 0.0 0.0 0.0 0.0 0.0 16.0 4.0 2.0 2.0; 0.0 0.0 0.0 0.0 0.0 0.0 0.0 1.0 1.0 2.0; 0.0 0.0 0.0 0.0 0.0 0.0 0.0 0.0 42.0 1.0; 0.0 0.0 0.0 0.0 0.0 0.0 0.0 0.0 0.0 36.0; 0.0 0.0 0.0 0.0 0.0 0.0 0.0 0.0 0.0 0.0]
Q3 = [0 4 4 1 15 3 13 10 6 12; 0 0 39 9 19 6 21 2 0 11; 0 0 0 5 4 15 19 10 4 0; 0 0 0 0 2 1 12 4 2 11; 0 0 0 0 0 10 4 9 11 8; 0 0 0 0 0 0 2 1 49 41; 0 0 0 0 0 0 0 6 9 11; 0 0 0 0 0 0 0 0 14 12; 0 0 0 0 0 0 0 0 0 10; 0 0 0 0 0 0 0 0 0 0]
